119
0 87 50 104 6 71 110 117 77 39 
4 106 53 26 67 103 102 15 12 101 
36 42 2 14 13 28 25 65 98 100 
99 54 30 21 56 75 41 97 96 74 
85 62 91 111 112 22 95 64 58 70 
7 93 24 35 88 109 52 118 34 81 
33 17 3 19 5 82 60 8 83 38 
92 78 10 57 23 86 61 9 32 105 
113 51 20 76 18 66 27 1 72 114 
29 40 37 44 69 63 43 68 84 107 
55 59 79 45 49 90 31 11 47 48 
16 46 115 73 108 80 116 94 89 
